n_res = 5;
rcap = [21, 33, 17, 89, 95];
rtype = [1, 1, 1, 2, 2];
n_tasks = 16;
modes = [ {1, 2, 3}, {4, 5, 6}, {7, 8, 9}, {10, 11, 12}, {13, 14, 15}, {16, 17, 18}, {19, 20, 21}, {22, 23, 24}, {25, 26, 27}, {28, 29, 30}, {31, 32, 33}, {34, 35, 36}, {37, 38, 39}, {40, 41, 42}, {43, 44, 45}, {46, 47, 48} ];
succ = [ {12, 15}, {4, 7, 11}, {5, 6, 9}, {6, 8}, {7, 11, 15}, {14}, {8, 13, 16}, {14}, {10, 15}, {11, 12}, {13, 16}, {13, 16}, {14}, {}, {}, {} ];
n_opt = 48;
dur = [5, 6, 10, 1, 3, 4, 6, 6, 9, 1, 6, 9, 1, 3, 6, 3, 7, 10, 5, 6, 8, 2, 4, 9, 7, 7, 8, 3, 8, 9, 2, 3, 3, 6, 7, 8, 2, 7, 8, 6, 7, 9, 1, 9, 10, 4, 5, 7];
rreq = [|  0,  6,  2,  0,  0,  2,  7,  0,  0,  8,  0,  7,  5,  0,  0,  4,  3,  0,  7,  0,  2,  0,  3,  2,  9,  9,  0,  7,  5,  0,  0,  3,  0,  0,  7,  4,  6,  6,  4,  6,  6,  4,  0,  0,  0,  0,  0,  9
        |  6,  0,  0,  4,  2,  0,  5,  3,  3,  0,  0,  8,  0,  8,  5,  0,  3,  3,  0,  7,  5,  5,  4,  0, 10,  0,  9,  0,  0,  0,  0,  6,  0, 10,  8,  0,  0, 10,  5,  0,  0,  0,  0,  9,  4,  0,  0,  7
        |  0,  0,  0,  7,  0,  6,  1,  0,  0, 10,  2,  0,  8,  0,  0,  0,  0,  0,  0,  0,  0,  6,  6,  5,  5,  0,  0,  0,  0,  1,  8,  0,  2,  0,  0,  0,  0,  0,  0,  7,  0,  7, 10, 10, 10,  5,  5,  4
        |  9,  6,  5,  9,  7,  6,  2,  2,  2,  3,  3,  2,  8,  7,  6,  5,  4,  3,  5,  5,  5, 10,  9,  9,  6,  7,  6,  7,  6,  5,  7,  5,  3,  8,  7,  7,  5,  2,  2,  4,  3,  3,  8,  5,  2,  8,  8,  6
        |  8,  7,  5,  8,  7,  7,  6,  8,  4,  8,  5,  3,  5,  2,  2,  8,  8,  7,  6,  6,  5,  6,  4,  3,  9,  9,  9,  9,  7,  7,  8,  2,  5,  8,  3,  3,  5,  4,  2,  9,  7,  5,  4,  3,  3,  9,  8,  5 |];
